Y  H 
 1.0000000000000000
     4.2000000000000002    0.0000000000000000    0.0000000000000000
     0.0000000000000000    4.2000000000000002    0.0000000000000000
     0.0000000000000000    0.0000000000000000    4.2000000000000002
 Y   H  
   1   6
Cartesian
  0.0000000000000000  0.0000000000000000  0.0000000000000000
  2.1000000000000001  0.0000000000000000  0.0000000000000000
  0.0000000000000000  2.1000000000000001  0.0000000000000000
  0.0000000000000000  0.0000000000000000  2.1000000000000001
  1.0500000000000000  1.0500000000000000  1.0500000000000000
  3.1500000000000004  3.1500000000000004  1.0500000000000000
  1.0500000000000000  3.1500000000000004  3.1500000000000004
