7
Lattice="0.20199440822768402 0.0036264006917475 0.0030962751912850736 0.0036264006917474216 0.20409657516552182 -0.001804527711823433 0.003096275191284835 -0.001804527711823614 0.20296684228658785" Properties=species:S:1:pos:R:3:forces:R:3 energy=-13.997668421510692 stress="-0.0002965787370199736 -0.00019740475777745795 0.0002754216352881402 -0.00019740475777745795 -0.001763543427037023 5.916462508835245e-05 0.0002754216352881402 5.916462508835245e-05 -0.0009743997522932346" pbc="T T T"
Ca      -0.00002005       0.00008112      -0.00002252      -0.00302035       0.01277356       0.00814627
H        0.10277829       0.10388627       0.00067771       0.00494215      -0.00278240       0.01304141
H        0.10256797       0.00095235       0.10301512      -0.01224450      -0.01705848       0.00017962
H        0.00343973       0.10112268       0.10048536       0.00435370       0.00832495       0.02309741
H        0.06886708       0.06807237       0.06732625      -0.01542446       0.00388749      -0.00504569
H        0.13884142       0.13849793       0.06778447      -0.01528714      -0.02265565      -0.00838112
H        0.13861947       0.06863806       0.13749330       0.01321951       0.00670983       0.00131844
