11
Lattice="0.17757366754352383 -0.008168482639264806 0.004808209569670353 -0.008168482639264903 0.15495754805545603 0.006063885691987369 0.004808209569670117 0.006063885691987192 0.1720875572637901" Properties=species:S:1:pos:R:3:forces:R:3 energy=-21.997790361612775 stress="8.515560638572349e-05 0.0005226932775845713 -0.0019890732080799305 0.0005226932775845713 -0.0031163992846679955 -0.002092379012540827 -0.0019890732080799305 -0.002092379012540827 -0.0006201286083382379" pbc="T T T"
Ce      -0.00001138       0.00007371      -0.00005514      -0.00643023      -0.00818437       0.00438971
H        0.08469617       0.07345358       0.00544129      -0.00286288      -0.00631425      -0.01497296
H        0.09119691      -0.00108961       0.08843748      -0.00788806       0.01457070      -0.01534172
H       -0.00164918       0.08052021       0.08907741      -0.00457197      -0.00395250       0.00369185
H        0.04353816       0.03819651       0.04574144       0.00813854      -0.00590086      -0.01487881
H        0.12835125       0.11154641       0.05117842       0.00408400       0.00284905       0.00705646
H        0.13467833       0.03721564       0.13415147       0.01350271      -0.00012906      -0.00118353
H        0.04191899       0.11870681       0.13475139       0.00270999       0.01217857       0.01616526
H        0.02171253       0.01912668       0.02285265       0.00390753      -0.00317609      -0.00669093
H        0.14885438       0.12922000       0.03103921       0.00640787       0.00700000      -0.01085588
H        0.15865936       0.01750883       0.15559549      -0.01311024      -0.00065678       0.00390489
