7
Lattice="0.20122768489802498 -0.0032520411174914673 -0.011064154248394593 -0.0032520411174914486 0.2008812732248373 -0.0036592548969670785 -0.011064154248394851 -0.0036592548969672806 0.20725483231191932" Properties=species:S:1:pos:R:3:forces:R:3 energy=-13.997929034721441 stress="-0.0011424243647910769 -0.0010035107512300712 0.0004929330918033917 -0.0010035107512300712 -0.0005131082434610903 0.00028400122796084327 0.0004929330918033917 0.00028400122796084327 -0.0031135343425497224" pbc="T T T"
Ce       0.00001658      -0.00002219       0.00003041       0.00396965      -0.00373469       0.01418290
H        0.09905463       0.09881122      -0.00746616      -0.00339878       0.00760411       0.00617048
H        0.09510094      -0.00344015       0.09808639      -0.01144500      -0.00130625      -0.00689150
H       -0.00718905       0.09857726       0.10181847      -0.01410811      -0.00498893      -0.02040961
H        0.06162059       0.06398603       0.06352995      -0.00552352      -0.02090870      -0.00055859
H        0.12901425       0.13123224       0.05854772      -0.00295507      -0.00728177       0.00749099
H        0.12628217       0.06168791       0.13022045       0.00783162      -0.01284066       0.01241047
