11
Lattice="0.15661126752454568 -0.0011619165314685005 0.002518002972280678 -0.0011619165314685504 0.1700773621713903 0.0033016780153273867 0.0025180029722806124 0.003301678015327272 0.17678837306556883" Properties=species:S:1:pos:R:3:forces:R:3 energy=-21.997817009316925 stress="0.0002090299067020341 0.0011651435564955528 0.0013234329916142395 0.0011651435564955528 -0.002561678133360103 9.752966517591613e-05 0.0013234329916142395 9.752966517591613e-05 -0.000933366216769578" pbc="T T T"
La       0.00004963       0.00003970       0.00005296      -0.01582680       0.00962440       0.00786152
H        0.07767962       0.08444138       0.00296139      -0.01514174       0.00157677       0.00954375
H        0.07958886       0.00101246       0.08961612      -0.01058239      -0.01930219       0.00750501
H        0.00069869       0.08672017       0.09004100      -0.01725107       0.01026388       0.01002747
H        0.03948246       0.04300856       0.04565534      -0.02295211       0.00740649      -0.00228625
H        0.11721405       0.12747663       0.04850470      -0.00221133       0.00049806      -0.01127177
H        0.11910541       0.04410650       0.13531990      -0.00534270       0.00000339       0.00482533
H        0.04018289       0.12975505       0.13566795      -0.00901359      -0.00978246      -0.00372382
H        0.01972492       0.02153718       0.02285473      -0.01113273      -0.00015110      -0.01133777
H        0.13634954       0.14819167       0.02722713       0.01284449       0.00856038       0.01223680
H        0.13907540       0.02311312       0.15734481      -0.00455228      -0.00809345      -0.00493233
