11
Lattice="0.17165626118716337 -0.004112900425650926 -0.012045147440062158 -0.004112900425651227 0.16382082258312253 -0.005993974976219663 -0.012045147440062073 -0.005993974976219847 0.1684099121920839" Properties=species:S:1:pos:R:3:forces:R:3 energy=-21.998085859045645 stress="-0.0020624595670641014 0.0004703027912398549 0.0003621798108062269 0.0004703027912398549 -0.0013269935414425924 -0.0002589859524194391 0.0003621798108062269 -0.0002589859524194391 -0.00123804656167018" pbc="T T T"
Sc       0.00009090      -0.00001719       0.00003091       0.00196808      -0.01082681      -0.00747725
H        0.08379724       0.07977553      -0.00901287      -0.02126232      -0.00360756       0.00535886
H        0.07981456      -0.00504087       0.07812600       0.00003299      -0.00322459       0.01433839
H       -0.00804884       0.07889180       0.08125144       0.01161342      -0.00583254      -0.00259704
H        0.03889122       0.03838895       0.03755875       0.01360343       0.00958365       0.00245731
H        0.12264231       0.11830539       0.02856366       0.01358350       0.00211162       0.00516050
H        0.11866747       0.03338549       0.11582824       0.00755816       0.00074480      -0.01073248
H        0.03082039       0.11735200       0.11877152      -0.00885231       0.00921906       0.00048993
H        0.01946290       0.01921059       0.01879704       0.00378592       0.00821348       0.00424024
H        0.14504899       0.13898982       0.00534073       0.00918827      -0.00876528       0.00422460
H        0.13909670       0.01158285       0.13606838       0.00104542      -0.00948802       0.00517604
