7
Lattice="0.19936022165843215 -8.83296992559611e-05 -0.007386108302171734 -8.832969925615763e-05 0.2071356682620877 6.716637115712247e-05 -0.00738610830217176 6.716637115708388e-05 0.2022645641736002" Properties=species:S:1:pos:R:3:forces:R:3 energy=-13.997825205923927 stress="-0.000155262610961679 0.0005710002718761683 -0.00011149289646086956 0.0005710002718761683 -0.0011137274618414025 -1.883853636860357e-05 -0.00011149289646086956 -1.883853636860357e-05 -0.0010994302252968935" pbc="T T T"
Sc      -0.00003970       0.00008216      -0.00003303      -0.00169379       0.00695059       0.00873730
H        0.09961227       0.10345531      -0.00359275      -0.01218021       0.02176418       0.01668315
H        0.09596719      -0.00001686       0.09747273      -0.00034078      -0.00548739      -0.00189027
H       -0.00377294       0.10354023       0.10115233      -0.00527931      -0.01167070       0.00045071
H        0.06332137       0.06838872       0.06436942      -0.00434088      -0.01001914      -0.01372318
H        0.13103459       0.13878627       0.06178908      -0.00031830      -0.00279211      -0.00035395
H        0.12858010       0.06831661       0.13057258      -0.01721635      -0.01596202      -0.00140961
