11
Lattice="0.16960210132647385 -0.00537891734406065 -0.0056118237762763454 -0.005378917344060584 0.1711722520395636 -0.004851839294892402 -0.0056118237762762795 -0.004851839294892571 0.1624383604849559" Properties=species:S:1:pos:R:3:forces:R:3 energy=-21.998023890502893 stress="-0.0020297068132595136 -0.0003179993189996566 0.0015164239563395412 -0.0003179993189996566 -0.0016126036820863817 0.0002928306458435756 0.0015164239563395412 0.0002928306458435756 -0.0018029586450940475" pbc="T T T"
Y        0.00002894      -0.00000861      -0.00003174      -0.00623059       0.01926124      -0.01117234
H        0.08214496       0.08292734      -0.00524237      -0.00272047       0.00928600       0.01053858
H        0.08201925      -0.00510725       0.07843380      -0.01307528      -0.01036816      -0.01183674
H       -0.00545917       0.08312940       0.07877630      -0.00072946       0.00472620      -0.00585350
H        0.03967856       0.04025931       0.03798667       0.00194342       0.03527999      -0.00524229
H        0.12179837       0.12311676       0.03271882      -0.01710590      -0.00350519       0.00644700
H        0.12171489       0.03508827       0.11641634       0.00743793      -0.01976868       0.01166024
H        0.03408059       0.12341062       0.11681378       0.00091736      -0.02663277       0.00347106
H        0.01979592       0.02010285       0.01900313      -0.00333600      -0.00319015      -0.01642637
H        0.14299455       0.14450468       0.01112686       0.01144370       0.00322162      -0.00296058
H        0.14277945       0.01244425       0.13659271       0.00154142      -0.00086957      -0.01265548
