7
Lattice="0.19881957254760182 0.00034992177661449184 0.00018928926729710322 0.00034992177661468527 0.20575986366974208 0.005568675475333687 0.00018928926729707557 0.005568675475333629 0.20437372298955836" Properties=species:S:1:pos:R:3:forces:R:3 energy=-13.997680137202936 stress="0.00010535648677061755 -0.0002899835287781101 0.0007896429963269892 -0.0002899835287781101 -0.0017098796762842962 0.0014747111692246869 0.0007896429963269892 0.0014747111692246869 0.0007109974476321435" pbc="T T T"
Y        0.00006336      -0.00001645       0.00005354       0.00707148       0.00671827      -0.00037368
H        0.09952295       0.10306764       0.00278472      -0.00913744      -0.00278568       0.00063523
H        0.09942721       0.00299786       0.10224139       0.01238117       0.01250652      -0.00782500
H        0.00025949       0.10571202       0.10501218       0.00840592      -0.00444236      -0.00857784
H        0.06573839       0.06987007       0.06934088       0.01622488      -0.00054910       0.00175557
H        0.13352925       0.13984062       0.07136851      -0.01149096      -0.02219444      -0.01697616
H        0.13340012       0.07182862       0.13880498      -0.00827220       0.00364409      -0.00063807
