Ca2 H6
1.0
   4.7999999999999998    0.0000000000000000    0.0000000000000000
   0.0000000000000000    4.7999999999999998    0.0000000000000000
   0.0000000000000000    0.0000000000000000    4.7999999999999998
Ca H
2 6
direct
   0.0000000000000000    0.0000000000000000    0.0000000000000000 Ca
   0.5000000000000000    0.5000000000000000    0.5000000000000000 Ca
   0.5000000000000000    0.0000000000000000    0.0000000000000000 H
   0.0000000000000000    0.5000000000000000    0.0000000000000000 H
   0.0000000000000000    0.0000000000000000    0.5000000000000000 H
   0.5000000000000000    0.0000000000000000    0.5000000000000000 H
   0.0000000000000000    0.5000000000000000    0.5000000000000000 H
   0.5000000000000000    0.5000000000000000    0.0000000000000000 H
