Sc4 H40
1.0
   5.0999999999999996    0.0000000000000000    0.0000000000000000
   0.0000000000000000    5.0999999999999996    0.0000000000000000
   0.0000000000000000    0.0000000000000000    5.0999999999999996
Sc H
4 40
direct
   0.0000000000000000    0.0000000000000000    0.0000000000000000 Sc
   0.5000000000000000    0.5000000000000000    0.0000000000000000 Sc
   0.5000000000000000    0.0000000000000000    0.5000000000000000 Sc
   0.0000000000000000    0.5000000000000000    0.5000000000000000 Sc
   0.7500000000000000    0.2500000000000000    0.7500000000000000 H
   0.7500000000000000    0.2500000000000000    0.2500000000000000 H
   0.7500000000000000    0.7500000000000000    0.2500000000000000 H
   0.2500000000000000    0.7500000000000000    0.2500000000000000 H
   0.2500000000000000    0.2500000000000000    0.2500000000000000 H
   0.7500000000000000    0.7500000000000000    0.7500000000000000 H
   0.2500000000000000    0.7500000000000000    0.7500000000000000 H
   0.2500000000000000    0.2500000000000000    0.7500000000000000 H
   0.8820000000000000    0.1180000000000000    0.8820000000000000 H
   0.8820000000000000    0.1180000000000000    0.1180000000000000 H
   0.8820000000000000    0.8820000000000000    0.1180000000000000 H
   0.1180000000000000    0.8820000000000000    0.1180000000000000 H
   0.1180000000000000    0.1180000000000000    0.1180000000000000 H
   0.8820000000000000    0.8820000000000000    0.8820000000000000 H
   0.1180000000000000    0.8820000000000000    0.8820000000000000 H
   0.1180000000000000    0.1180000000000000    0.8820000000000000 H
   0.6180000000000000    0.6180000000000000    0.1180000000000000 H
   0.6180000000000000    0.6180000000000000    0.8820000000000000 H
   0.3820000000000000    0.6180000000000000    0.8820000000000000 H
   0.6180000000000000    0.3820000000000000    0.8820000000000000 H
   0.6180000000000000    0.1180000000000000    0.3820000000000000 H
   0.3820000000000000    0.1180000000000000    0.3820000000000000 H
   0.3820000000000000    0.1180000000000000    0.6180000000000000 H
   0.3820000000000000    0.8820000000000000    0.6180000000000000 H
   0.6180000000000000    0.8820000000000000    0.6180000000000000 H
   0.6180000000000000    0.1180000000000000    0.6180000000000000 H
   0.3820000000000000    0.8820000000000000    0.3820000000000000 H
   0.3820000000000000    0.6180000000000000    0.1180000000000000 H
   0.3820000000000000    0.3820000000000000    0.1180000000000000 H
   0.6180000000000000    0.3820000000000000    0.1180000000000000 H
   0.3820000000000000    0.3820000000000000    0.8820000000000000 H
   0.1180000000000000    0.6180000000000000    0.3820000000000000 H
   0.8820000000000000    0.6180000000000000    0.3820000000000000 H
   0.8820000000000000    0.3820000000000000    0.3820000000000000 H
   0.1180000000000000    0.6180000000000000    0.6180000000000000 H
   0.8820000000000000    0.6180000000000000    0.6180000000000000 H
   0.8820000000000000    0.3820000000000000    0.6180000000000000 H
   0.1180000000000000    0.3820000000000000    0.6180000000000000 H
   0.1180000000000000    0.3820000000000000    0.3820000000000000 H
   0.6180000000000000    0.8820000000000000    0.3820000000000000 H
