Ca H 
 1.0000000000000000
     4.7999999999999998    0.0000000000000000    0.0000000000000000
     0.0000000000000000    4.7999999999999998    0.0000000000000000
     0.0000000000000000    0.0000000000000000    4.7999999999999998
 Ca  H  
   1  10
Cartesian
  0.0000000000000000  0.0000000000000000  0.0000000000000000
  2.3999999999999999  2.3999999999999999  0.0000000000000000
  2.3999999999999999  0.0000000000000000  2.3999999999999999
  0.0000000000000000  2.3999999999999999  2.3999999999999999
  1.2000000000000000  1.2000000000000000  1.2000000000000000
  3.5999999999999996  1.2000000000000000  1.2000000000000000
  1.2000000000000000  3.5999999999999996  1.2000000000000000
  1.2000000000000000  1.2000000000000000  3.5999999999999996
  3.5999999999999996  3.5999999999999996  1.2000000000000000
  3.5999999999999996  1.2000000000000000  3.5999999999999996
  1.2000000000000000  3.5999999999999996  3.5999999999999996
